Route #1: 1 77 112 106 123 139 104 29 64 105 90 92 99 1
Route #2 1 76 83 107 78 44 47 56 22 19 2 69 84 137 1
Route #3 1 15 12 41 38 18 48 120 129 117 102 136 34 87 1
Route #4 1 72 82 103 135 101 68 43 60 61 16 9 40 52 1
Route #5 1 58 45 66 49 67 20 62 7 6 97 114 91 13 73 1
Route #6 1 100 118 3 50 54 130 37 126 26 113 23 95 70 109 1
Route #7 1 39 132 35 116 28 124 51 75 98 32 14 59 1
Route #8 1 36 81 42 79 93 108 133 94 131 128 65 134 121 55 1
Route #9 1 57 122 21 46 110 89 125 1
Route #10 1 17 33 119 96 127 53 88 30 85 31 8 1
Route #11 1 80 74 111 11 71 63 5 24 27 10 138 115 25 86 4 1
Cost: 14909